c 1 DIAGNOSTIC
c 2 PS32K
c 3 CACHESIZE
c 4 HAVE_STATISTICS
c 5 PS16K
c 6 HAVE_REPLICATION
c 7 PS8K
c 8 HAVE_CRYPTO
c 9 HAVE_SEQUENCE
c 10 CS16MB
c 11 PS1K
c 12 HAVE_VERIFY
c 13 CS32MB
c 14 HAVE_HASH
c 15 CS64MB
c 16 PAGESIZE
c 17 CS512MB
c 18 PS4K
p cnf 18 29
3 -10 0
3 -13 0
3 -15 0
3 -17 0
10 13 15 17 -3 0
-10 -13 0
-10 -15 0
-10 -17 0
-13 -15 0
-13 -17 0
-15 -17 0
16 0
3 0
16 -11 0
16 -18 0
16 -7 0
16 -5 0
16 -2 0
11 18 7 5 2 -16 0
-11 -18 0
-11 -7 0
-11 -5 0
-11 -2 0
-18 -7 0
-18 -5 0
-18 -2 0
-7 -5 0
-7 -2 0
-5 -2 0
